DIMACS2
40 303 151 92 33 183 16 102 21 109 76 139 216 41 218 257 113 58 254 54 80 150 239 85 292 2 317 236 244 126 55 232 141 170 6 305 29 156 130 1 9
p edge 320 1865
e 0 149 3.0
e 0 83 5.0
e 0 228 2.0
e 0 153 4.0
e 0 273 4.0
e 1 207 42.0
e 1 176 37.0
e 1 42 29.0
e 1 145 20.0
e 1 39 17.0
e 1 61 14.0
e 1 195 25.0
e 1 70 31.0
e 1 16 28.0
e 1 54 39.0
e 1 160 5.0
e 1 199 41.0
e 1 134 26.0
e 1 101 40.0
e 1 115 3.0
e 1 169 2.0
e 1 121 35.0
e 1 141 40.0
e 1 240 49.0
e 1 159 24.0
e 1 131 3.0
e 1 60 37.0
e 1 3 4.0
e 1 286 46.0
e 1 294 12.0
e 1 119 1.0
e 1 87 3.0
e 1 129 40.0
e 1 28 41.0
e 1 65 28.0
e 1 46 45.0
e 1 104 5.0
e 1 208 3.0
e 1 62 4.0
e 1 81 9.0
e 1 50 48.0
e 1 229 45.0
e 1 190 29.0
e 1 249 30.0
e 1 285 40.0
e 1 0 21.0
e 2 194 16.0
e 2 0 18.0
e 2 108 24.0
e 2 266 36.0
e 2 313 24.0
e 2 203 26.0
e 2 190 39.0
e 2 7 7.0
e 2 312 29.0
e 2 306 35.0
e 2 238 20.0
e 2 239 26.0
e 2 75 19.0
e 2 220 36.0
e 2 223 24.0
e 2 97 40.0
e 2 311 44.0
e 2 211 21.0
e 2 185 12.0
e 2 301 6.0
e 2 257 10.0
e 2 164 32.0
e 2 84 45.0
e 2 96 12.0
e 2 184 27.0
e 2 38 42.0
e 2 250 49.0
e 2 187 25.0
e 2 218 42.0
e 2 76 27.0
e 2 229 29.0
e 2 273 23.0
e 2 11 47.0
e 2 154 26.0
e 2 70 44.0
e 2 219 15.0
e 2 210 40.0
e 2 94 3.0
e 2 274 25.0
e 2 137 19.0
e 3 89 1.0
e 4 11 9.0
e 5 123 1.0
e 5 170 39.0
e 6 208 49.0
e 6 234 10.0
e 6 216 6.0
e 6 33 45.0
e 6 285 40.0
e 6 213 21.0
e 6 97 35.0
e 6 20 29.0
e 6 112 2.0
e 6 308 47.0
e 6 283 10.0
e 6 7 24.0
e 6 141 42.0
e 6 237 38.0
e 6 190 19.0
e 6 277 14.0
e 6 260 34.0
e 6 56 1.0
e 6 142 43.0
e 6 282 42.0
e 6 284 39.0
e 6 104 19.0
e 6 202 25.0
e 6 5 38.0
e 6 42 47.0
e 6 167 48.0
e 6 230 12.0
e 6 147 2.0
e 6 256 46.0
e 6 303 39.0
e 6 231 28.0
e 6 278 26.0
e 6 31 14.0
e 6 17 15.0
e 6 8 18.0
e 6 227 35.0
e 6 310 3.0
e 6 128 2.0
e 6 120 34.0
e 6 212 32.0
e 7 153 1.0
e 8 305 2.0
e 8 1 30.0
e 9 146 17.0
e 9 36 40.0
e 9 53 31.0
e 9 110 10.0
e 9 189 38.0
e 9 63 14.0
e 9 191 21.0
e 9 281 47.0
e 9 236 37.0
e 9 283 47.0
e 9 152 39.0
e 9 100 11.0
e 9 195 15.0
e 9 130 35.0
e 9 176 45.0
e 9 37 6.0
e 9 290 29.0
e 9 204 27.0
e 9 105 17.0
e 9 14 40.0
e 9 221 47.0
e 9 188 27.0
e 9 46 38.0
e 9 126 14.0
e 9 233 46.0
e 9 279 42.0
e 9 271 24.0
e 9 270 2.0
e 9 313 38.0
e 9 31 24.0
e 9 282 17.0
e 9 59 31.0
e 9 1 21.0
e 9 161 15.0
e 9 29 24.0
e 9 211 11.0
e 9 60 36.0
e 9 71 47.0
e 10 165 1.0
e 11 150 9.0
e 11 16 5.0
e 11 95 4.0
e 11 118 11.0
e 11 246 10.0
e 11 63 1.0
e 11 111 9.0
e 11 243 9.0
e 11 52 2.0
e 12 151 49.0
e 12 196 1.0
e 12 21 19.0
e 12 208 1.0
e 12 228 1.0
e 12 287 4.0
e 13 147 1.0
e 14 125 1.0
e 15 238 2.0
e 15 294 1.0
e 15 137 1.0
e 16 45 48.0
e 16 193 24.0
e 16 181 33.0
e 16 25 48.0
e 16 101 4.0
e 16 52 30.0
e 16 216 25.0
e 16 17 2.0
e 16 46 3.0
e 16 218 40.0
e 16 217 28.0
e 16 301 16.0
e 16 169 46.0
e 16 116 37.0
e 16 203 23.0
e 16 147 48.0
e 16 107 45.0
e 16 20 2.0
e 16 149 28.0
e 16 69 13.0
e 16 299 4.0
e 16 213 42.0
e 16 195 29.0
e 16 283 6.0
e 16 141 38.0
e 16 43 13.0
e 16 21 35.0
e 16 159 28.0
e 16 198 14.0
e 16 244 33.0
e 16 308 26.0
e 16 148 36.0
e 16 253 46.0
e 16 47 47.0
e 16 291 4.0
e 16 37 17.0
e 16 48 10.0
e 16 177 45.0
e 16 23 38.0
e 17 223 1.0
e 18 37 1.0
e 19 65 1.0
e 19 57 3.0
e 19 249 1.0
e 20 287 1.0
e 21 145 34.0
e 21 31 37.0
e 21 97 34.0
e 21 163 23.0
e 21 74 38.0
e 21 71 12.0
e 21 121 29.0
e 21 3 41.0
e 21 118 43.0
e 21 69 34.0
e 21 161 9.0
e 21 62 48.0
e 21 111 44.0
e 21 143 44.0
e 21 98 28.0
e 21 155 33.0
e 21 132 16.0
e 21 206 47.0
e 21 72 3.0
e 21 240 21.0
e 21 58 33.0
e 21 258 47.0
e 21 165 47.0
e 21 189 29.0
e 21 68 30.0
e 21 229 42.0
e 21 177 19.0
e 21 307 33.0
e 21 220 12.0
e 21 133 29.0
e 21 18 9.0
e 21 14 1.0
e 21 200 3.0
e 21 234 48.0
e 21 199 13.0
e 21 10 44.0
e 21 279 34.0
e 21 35 45.0
e 22 34 2.0
e 22 157 1.0
e 23 153 1.0
e 24 236 13.0
e 24 96 1.0
e 25 263 1.0
e 26 13 1.0
e 26 170 45.0
e 26 292 4.0
e 27 102 8.0
e 27 193 1.0
e 27 48 1.0
e 28 141 25.0
e 29 186 13.0
e 29 209 40.0
e 29 216 8.0
e 29 178 25.0
e 29 51 6.0
e 29 210 42.0
e 29 27 48.0
e 29 70 39.0
e 29 141 44.0
e 29 140 37.0
e 29 107 40.0
e 29 96 11.0
e 29 212 42.0
e 29 211 1.0
e 29 66 36.0
e 29 238 46.0
e 29 313 1.0
e 29 95 30.0
e 29 118 9.0
e 29 288 34.0
e 29 214 18.0
e 29 19 30.0
e 29 91 45.0
e 29 14 48.0
e 29 1 8.0
e 29 132 16.0
e 29 197 37.0
e 29 167 4.0
e 29 256 39.0
e 29 37 24.0
e 29 86 5.0
e 29 105 26.0
e 29 229 35.0
e 29 42 30.0
e 29 20 30.0
e 29 299 7.0
e 29 292 40.0
e 29 43 13.0
e 29 76 30.0
e 30 180 1.0
e 31 217 1.0
e 32 21 9.0
e 32 147 1.0
e 32 146 2.0
e 33 106 41.0
e 33 175 22.0
e 33 59 33.0
e 33 182 16.0
e 33 16 37.0
e 33 271 25.0
e 33 241 40.0
e 33 4 44.0
e 33 148 3.0
e 33 8 5.0
e 33 317 24.0
e 33 263 34.0
e 33 145 33.0
e 33 301 16.0
e 33 32 31.0
e 33 44 14.0
e 33 27 39.0
e 33 308 49.0
e 33 71 15.0
e 33 278 21.0
e 33 58 17.0
e 33 91 45.0
e 33 192 22.0
e 33 203 32.0
e 33 276 37.0
e 33 103 48.0
e 33 79 4.0
e 33 151 49.0
e 33 180 2.0
e 33 144 16.0
e 33 105 16.0
e 33 80 16.0
e 33 270 19.0
e 33 152 25.0
e 33 117 23.0
e 33 231 25.0
e 33 300 24.0
e 33 37 8.0
e 33 137 21.0
e 34 149 1.0
e 35 165 1.0
e 35 226 3.0
e 36 147 3.0
e 37 153 2.0
e 38 168 3.0
e 38 45 1.0
e 38 238 1.0
e 39 193 3.0
e 39 310 5.0
e 40 267 1.0
e 40 203 1.0
e 41 294 12.0
e 41 62 44.0
e 41 254 7.0
e 41 287 29.0
e 41 72 48.0
e 41 99 44.0
e 41 183 3.0
e 41 63 43.0
e 41 126 16.0
e 41 146 7.0
e 41 125 21.0
e 41 0 28.0
e 41 259 45.0
e 41 196 21.0
e 41 12 30.0
e 41 221 49.0
e 41 230 3.0
e 41 84 16.0
e 41 113 10.0
e 41 8 23.0
e 41 137 27.0
e 41 115 40.0
e 41 159 41.0
e 41 104 26.0
e 41 9 30.0
e 41 152 12.0
e 41 90 29.0
e 41 249 12.0
e 41 64 28.0
e 41 123 27.0
e 41 252 39.0
e 41 108 48.0
e 41 116 42.0
e 41 148 13.0
e 41 48 19.0
e 41 14 11.0
e 41 23 43.0
e 41 219 21.0
e 41 58 16.0
e 41 160 20.0
e 42 59 1.0
e 43 185 1.0
e 44 58 49.0
e 44 229 2.0
e 45 316 2.0
e 46 112 3.0
e 47 77 1.0
e 48 47 1.0
e 49 211 1.0
e 49 144 1.0
e 50 312 1.0
e 51 121 1.0
e 52 88 1.0
e 53 85 20.0
e 54 271 20.0
e 54 73 5.0
e 54 264 49.0
e 54 11 4.0
e 54 226 5.0
e 54 318 16.0
e 54 66 22.0
e 54 85 41.0
e 54 206 33.0
e 54 233 3.0
e 54 182 24.0
e 54 277 6.0
e 54 209 47.0
e 54 266 20.0
e 54 15 21.0
e 54 81 3.0
e 54 165 10.0
e 54 245 35.0
e 54 145 26.0
e 54 55 34.0
e 54 309 27.0
e 54 249 45.0
e 54 195 17.0
e 54 154 39.0
e 54 139 23.0
e 54 296 18.0
e 54 40 3.0
e 54 244 9.0
e 54 74 16.0
e 54 227 2.0
e 54 269 15.0
e 54 204 8.0
e 54 20 27.0
e 54 256 9.0
e 54 36 34.0
e 54 82 29.0
e 54 7 43.0
e 54 242 21.0
e 54 311 19.0
e 54 176 30.0
e 55 88 48.0
e 55 217 37.0
e 55 263 23.0
e 55 268 9.0
e 55 213 40.0
e 55 52 31.0
e 55 309 47.0
e 55 232 6.0
e 55 230 20.0
e 55 99 8.0
e 55 157 1.0
e 55 126 12.0
e 55 197 29.0
e 55 254 17.0
e 55 218 43.0
e 55 303 14.0
e 55 132 44.0
e 55 250 37.0
e 55 223 19.0
e 55 158 17.0
e 55 45 5.0
e 55 199 41.0
e 55 237 7.0
e 55 27 3.0
e 55 189 10.0
e 55 245 4.0
e 55 134 34.0
e 55 262 29.0
e 55 108 45.0
e 55 86 39.0
e 55 198 7.0
e 55 48 21.0
e 55 148 2.0
e 55 156 3.0
e 55 100 8.0
e 55 67 36.0
e 55 36 8.0
e 55 65 18.0
e 55 143 28.0
e 55 285 36.0
e 56 157 1.0
e 57 166 3.0
e 57 180 1.0
e 57 269 5.0
e 58 13 3.0
e 58 84 40.0
e 58 141 34.0
e 58 294 8.0
e 58 157 23.0
e 58 142 24.0
e 58 70 5.0
e 58 10 28.0
e 58 205 24.0
e 58 197 3.0
e 58 121 38.0
e 58 17 41.0
e 58 136 22.0
e 58 299 37.0
e 58 164 29.0
e 58 282 32.0
e 58 99 1.0
e 58 73 10.0
e 58 135 18.0
e 58 196 16.0
e 58 49 29.0
e 58 251 9.0
e 58 106 47.0
e 58 74 44.0
e 58 280 49.0
e 58 180 45.0
e 58 107 1.0
e 58 147 27.0
e 58 50 40.0
e 58 124 5.0
e 58 229 11.0
e 58 37 39.0
e 58 253 22.0
e 58 193 32.0
e 59 100 1.0
e 60 295 1.0
e 61 316 1.0
e 61 55 36.0
e 62 9 42.0
e 62 85 42.0
e 62 18 11.0
e 62 129 2.0
e 62 29 12.0
e 62 4 4.0
e 62 225 2.0
e 63 22 2.0
e 64 2 13.0
e 65 74 1.0
e 66 75 1.0
e 67 198 1.0
e 68 138 1.0
e 69 75 1.0
e 70 135 1.0
e 71 310 3.0
e 72 248 1.0
e 73 144 1.0
e 74 56 1.0
e 75 205 1.0
e 76 108 36.0
e 76 63 33.0
e 76 198 21.0
e 76 241 43.0
e 76 60 39.0
e 76 10 7.0
e 76 19 9.0
e 76 309 40.0
e 76 313 35.0
e 76 254 45.0
e 76 94 24.0
e 76 293 21.0
e 76 234 25.0
e 76 173 25.0
e 76 92 10.0
e 76 17 28.0
e 76 145 14.0
e 76 139 26.0
e 76 232 19.0
e 76 126 49.0
e 76 70 49.0
e 76 141 37.0
e 76 65 10.0
e 76 59 43.0
e 76 242 17.0
e 76 51 25.0
e 76 259 1.0
e 76 58 47.0
e 76 103 9.0
e 76 243 12.0
e 76 230 17.0
e 76 196 18.0
e 76 104 5.0
e 76 263 26.0
e 76 239 15.0
e 76 297 34.0
e 76 24 41.0
e 77 111 1.0
e 78 248 1.0
e 78 196 1.0
e 79 108 1.0
e 80 133 8.0
e 80 147 8.0
e 80 171 4.0
e 80 110 34.0
e 80 30 38.0
e 80 29 45.0
e 80 244 41.0
e 80 197 12.0
e 80 112 2.0
e 80 257 31.0
e 80 135 9.0
e 80 265 12.0
e 80 285 6.0
e 80 306 7.0
e 80 217 1.0
e 80 266 23.0
e 80 153 26.0
e 80 262 39.0
e 80 121 14.0
e 80 259 14.0
e 80 154 19.0
e 80 124 32.0
e 80 130 25.0
e 80 35 3.0
e 80 113 7.0
e 80 32 21.0
e 80 87 27.0
e 80 136 5.0
e 80 236 23.0
e 80 78 19.0
e 80 242 9.0
e 80 155 37.0
e 80 261 16.0
e 80 315 5.0
e 80 286 31.0
e 80 88 24.0
e 80 69 49.0
e 80 310 6.0
e 80 220 9.0
e 80 27 7.0
e 81 230 2.0
e 82 248 1.0
e 83 119 2.0
e 83 303 37.0
e 84 250 1.0
e 85 302 18.0
e 85 285 6.0
e 85 55 3.0
e 85 244 27.0
e 85 167 38.0
e 85 195 10.0
e 85 154 28.0
e 85 130 25.0
e 85 134 9.0
e 85 123 38.0
e 85 16 12.0
e 85 90 22.0
e 85 9 31.0
e 85 194 44.0
e 85 64 29.0
e 85 79 16.0
e 85 76 8.0
e 85 0 27.0
e 85 81 42.0
e 85 52 31.0
e 85 242 12.0
e 85 155 22.0
e 85 193 46.0
e 85 24 12.0
e 85 17 38.0
e 85 28 34.0
e 85 71 35.0
e 85 258 35.0
e 85 267 45.0
e 85 34 37.0
e 85 211 22.0
e 85 190 17.0
e 85 3 28.0
e 85 26 37.0
e 85 262 8.0
e 85 104 7.0
e 85 73 7.0
e 85 63 25.0
e 86 197 1.0
e 87 205 1.0
e 88 17 2.0
e 89 172 1.0
e 90 181 1.0
e 91 94 1.0
e 92 131 43.0
e 92 285 6.0
e 92 227 45.0
e 92 228 2.0
e 92 126 4.0
e 92 98 48.0
e 92 192 20.0
e 92 310 12.0
e 92 103 29.0
e 92 313 17.0
e 92 90 3.0
e 92 292 37.0
e 92 84 42.0
e 92 266 36.0
e 92 190 5.0
e 92 53 38.0
e 92 187 20.0
e 92 148 7.0
e 92 70 3.0
e 92 129 42.0
e 92 111 5.0
e 92 258 1.0
e 92 170 6.0
e 92 20 47.0
e 92 14 28.0
e 92 21 6.0
e 92 100 44.0
e 92 278 33.0
e 92 4 38.0
e 92 237 23.0
e 92 15 25.0
e 92 249 32.0
e 92 276 4.0
e 92 242 36.0
e 92 287 3.0
e 92 224 4.0
e 92 78 33.0
e 92 180 33.0
e 92 309 39.0
e 92 254 37.0
e 93 227 2.0
e 93 20 1.0
e 94 247 1.0
e 95 252 1.0
e 96 131 1.0
e 97 65 2.0
e 98 292 17.0
e 98 140 5.0
e 98 7 1.0
e 98 196 1.0
e 99 267 1.0
e 100 292 7.0
e 101 165 1.0
e 102 200 23.0
e 102 221 28.0
e 102 168 44.0
e 102 68 6.0
e 102 302 44.0
e 102 295 44.0
e 102 228 39.0
e 102 156 40.0
e 102 132 34.0
e 102 206 9.0
e 102 130 44.0
e 102 69 2.0
e 102 222 6.0
e 102 115 23.0
e 102 21 45.0
e 102 313 42.0
e 102 242 14.0
e 102 276 8.0
e 102 75 16.0
e 102 144 14.0
e 102 74 38.0
e 102 223 34.0
e 102 22 18.0
e 102 159 49.0
e 102 197 17.0
e 102 179 10.0
e 102 76 40.0
e 102 32 23.0
e 102 23 43.0
e 102 257 40.0
e 102 188 3.0
e 102 140 24.0
e 102 212 33.0
e 102 86 24.0
e 102 263 29.0
e 102 244 6.0
e 102 81 28.0
e 102 62 13.0
e 103 41 4.0
e 104 312 2.0
e 105 91 1.0
e 106 42 1.0
e 107 117 1.0
e 108 110 1.0
e 109 58 37.0
e 109 73 17.0
e 109 59 19.0
e 109 21 34.0
e 109 299 16.0
e 109 0 4.0
e 109 89 20.0
e 109 52 44.0
e 109 273 14.0
e 109 162 14.0
e 109 257 46.0
e 109 250 8.0
e 109 121 13.0
e 109 232 24.0
e 109 44 32.0
e 109 49 36.0
e 109 149 18.0
e 109 107 23.0
e 109 122 44.0
e 109 243 30.0
e 109 151 8.0
e 109 84 31.0
e 109 159 16.0
e 109 220 44.0
e 109 46 41.0
e 109 5 10.0
e 109 33 14.0
e 109 55 35.0
e 109 309 7.0
e 109 217 10.0
e 109 97 23.0
e 109 60 46.0
e 109 152 36.0
e 109 38 31.0
e 109 98 29.0
e 109 197 43.0
e 109 90 47.0
e 109 306 42.0
e 109 54 47.0
e 109 104 18.0
e 110 187 2.0
e 111 66 1.0
e 112 173 2.0
e 113 261 22.0
e 113 312 9.0
e 113 182 45.0
e 113 23 21.0
e 113 29 33.0
e 113 233 25.0
e 113 92 21.0
e 113 219 42.0
e 113 155 42.0
e 113 215 21.0
e 113 54 31.0
e 113 24 15.0
e 113 12 34.0
e 113 305 15.0
e 113 45 29.0
e 113 253 24.0
e 113 89 37.0
e 113 10 33.0
e 113 118 1.0
e 113 203 45.0
e 113 264 29.0
e 113 298 5.0
e 113 42 29.0
e 113 260 2.0
e 113 255 11.0
e 113 57 29.0
e 113 301 46.0
e 113 279 40.0
e 113 201 11.0
e 113 151 36.0
e 113 198 48.0
e 113 297 33.0
e 113 165 34.0
e 113 166 5.0
e 113 199 31.0
e 113 220 37.0
e 113 39 40.0
e 113 95 46.0
e 113 175 37.0
e 114 38 3.0
e 114 24 1.0
e 115 45 1.0
e 116 229 1.0
e 117 255 1.0
e 118 166 1.0
e 119 278 1.0
e 120 308 1.0
e 121 231 1.0
e 122 34 1.0
e 122 248 1.0
e 123 160 2.0
e 124 119 2.0
e 125 275 1.0
e 126 106 39.0
e 126 118 18.0
e 126 54 22.0
e 126 111 16.0
e 126 93 35.0
e 126 36 32.0
e 126 238 12.0
e 126 283 42.0
e 126 131 17.0
e 126 88 9.0
e 126 224 38.0
e 126 311 7.0
e 126 105 20.0
e 126 276 30.0
e 126 110 15.0
e 126 134 3.0
e 126 244 21.0
e 126 230 22.0
e 126 254 35.0
e 126 10 20.0
e 126 26 31.0
e 126 78 16.0
e 126 94 5.0
e 126 293 4.0
e 126 142 23.0
e 126 169 42.0
e 126 260 30.0
e 126 277 45.0
e 126 0 10.0
e 126 310 42.0
e 126 100 15.0
e 126 72 3.0
e 126 250 22.0
e 126 286 37.0
e 126 225 22.0
e 126 149 23.0
e 127 29 41.0
e 128 76 11.0
e 128 104 2.0
e 129 179 1.0
e 130 284 7.0
e 130 165 22.0
e 130 7 32.0
e 130 288 39.0
e 130 196 33.0
e 130 84 10.0
e 130 40 12.0
e 130 125 42.0
e 130 94 27.0
e 130 264 11.0
e 130 270 49.0
e 130 68 14.0
e 130 197 6.0
e 130 103 23.0
e 130 160 36.0
e 130 36 46.0
e 130 138 29.0
e 130 35 20.0
e 130 306 27.0
e 130 175 7.0
e 130 18 19.0
e 130 253 1.0
e 130 176 44.0
e 130 123 42.0
e 130 231 19.0
e 130 232 40.0
e 130 59 32.0
e 130 29 40.0
e 130 237 18.0
e 130 38 1.0
e 130 111 47.0
e 130 127 45.0
e 130 255 14.0
e 130 171 38.0
e 130 50 22.0
e 130 291 27.0
e 130 81 42.0
e 131 270 1.0
e 132 87 2.0
e 133 30 8.0
e 133 230 4.0
e 133 281 1.0
e 133 105 10.0
e 133 36 1.0
e 133 68 11.0
e 133 37 7.0
e 133 192 8.0
e 133 190 9.0
e 134 159 1.0
e 135 211 1.0
e 136 260 1.0
e 137 187 2.0
e 138 177 1.0
e 139 228 18.0
e 139 284 21.0
e 139 138 31.0
e 139 185 34.0
e 139 242 37.0
e 139 19 7.0
e 139 39 38.0
e 139 15 15.0
e 139 190 35.0
e 139 74 35.0
e 139 110 25.0
e 139 196 27.0
e 139 264 48.0
e 139 102 16.0
e 139 78 22.0
e 139 278 15.0
e 139 215 13.0
e 139 182 47.0
e 139 155 17.0
e 139 8 27.0
e 139 127 31.0
e 139 124 12.0
e 139 172 28.0
e 139 248 16.0
e 139 153 9.0
e 139 256 8.0
e 139 246 31.0
e 139 285 41.0
e 139 295 2.0
e 139 260 26.0
e 139 122 16.0
e 139 303 20.0
e 139 258 26.0
e 139 142 15.0
e 139 24 6.0
e 139 279 49.0
e 139 252 3.0
e 139 191 1.0
e 140 103 2.0
e 141 147 37.0
e 141 203 49.0
e 141 188 36.0
e 141 287 16.0
e 141 165 15.0
e 141 293 30.0
e 141 153 30.0
e 141 152 1.0
e 141 211 44.0
e 141 247 21.0
e 141 36 21.0
e 141 235 43.0
e 141 14 39.0
e 141 208 33.0
e 141 213 48.0
e 141 64 13.0
e 141 26 40.0
e 141 93 31.0
e 141 45 49.0
e 141 34 44.0
e 141 151 45.0
e 141 12 20.0
e 141 189 2.0
e 141 292 49.0
e 141 37 40.0
e 141 145 28.0
e 141 40 32.0
e 141 88 1.0
e 141 263 32.0
e 141 66 48.0
e 141 142 1.0
e 141 236 10.0
e 142 18 1.0
e 143 265 1.0
e 144 89 1.0
e 145 199 1.0
e 146 53 1.0
e 147 275 1.0
e 148 4 2.0
e 149 96 1.0
e 150 290 5.0
e 150 90 14.0
e 150 130 20.0
e 150 271 4.0
e 150 194 12.0
e 150 312 13.0
e 150 0 23.0
e 150 75 2.0
e 150 240 23.0
e 150 299 9.0
e 150 317 11.0
e 150 174 7.0
e 150 68 22.0
e 150 156 19.0
e 150 316 43.0
e 150 177 34.0
e 150 241 11.0
e 150 65 5.0
e 150 171 15.0
e 150 168 47.0
e 150 53 10.0
e 150 70 35.0
e 150 287 46.0
e 150 18 6.0
e 150 234 46.0
e 150 279 44.0
e 150 247 40.0
e 150 201 34.0
e 150 199 36.0
e 150 227 41.0
e 150 248 48.0
e 150 232 7.0
e 150 223 43.0
e 150 200 25.0
e 150 117 21.0
e 150 266 49.0
e 150 81 3.0
e 150 313 29.0
e 150 9 16.0
e 150 245 8.0
e 151 213 6.0
e 151 307 16.0
e 151 128 27.0
e 151 60 43.0
e 151 71 18.0
e 151 87 42.0
e 151 110 24.0
e 151 133 43.0
e 151 199 48.0
e 151 290 5.0
e 151 170 11.0
e 151 292 10.0
e 151 175 27.0
e 151 239 34.0
e 151 38 12.0
e 151 172 33.0
e 151 306 25.0
e 151 161 10.0
e 151 129 10.0
e 151 146 24.0
e 151 305 44.0
e 151 13 27.0
e 151 287 42.0
e 151 264 18.0
e 151 1 44.0
e 151 143 18.0
e 151 152 35.0
e 151 92 49.0
e 151 285 45.0
e 151 81 23.0
e 151 111 19.0
e 151 291 8.0
e 151 130 20.0
e 151 62 40.0
e 151 202 37.0
e 151 56 25.0
e 152 121 1.0
e 153 194 2.0
e 154 9 38.0
e 154 6 19.0
e 155 91 2.0
e 156 127 43.0
e 156 1 39.0
e 156 32 45.0
e 156 313 48.0
e 156 314 29.0
e 156 235 8.0
e 156 166 37.0
e 156 57 39.0
e 156 191 36.0
e 156 285 48.0
e 156 153 38.0
e 156 129 10.0
e 156 83 5.0
e 156 113 9.0
e 156 33 4.0
e 156 295 23.0
e 156 290 33.0
e 156 161 27.0
e 156 59 41.0
e 156 30 28.0
e 156 46 35.0
e 156 169 29.0
e 156 142 14.0
e 156 204 23.0
e 156 90 32.0
e 156 162 28.0
e 156 274 29.0
e 156 107 47.0
e 156 88 2.0
e 156 292 37.0
e 156 236 24.0
e 156 54 25.0
e 156 228 45.0
e 156 171 18.0
e 156 34 6.0
e 156 70 19.0
e 156 104 43.0
e 156 178 23.0
e 157 31 1.0
e 158 102 13.0
e 159 106 1.0
e 160 13 1.0
e 161 146 1.0
e 162 161 1.0
e 163 162 1.0
e 164 146 2.0
e 165 269 1.0
e 166 290 1.0
e 167 222 2.0
e 168 107 3.0
e 169 120 1.0
e 170 57 10.0
e 170 79 43.0
e 170 116 8.0
e 170 214 9.0
e 170 3 3.0
e 170 190 42.0
e 170 105 26.0
e 170 9 7.0
e 170 68 12.0
e 170 200 32.0
e 170 278 7.0
e 170 27 36.0
e 170 312 5.0
e 170 173 11.0
e 170 171 13.0
e 170 77 49.0
e 170 240 10.0
e 170 255 46.0
e 170 274 7.0
e 170 178 17.0
e 170 261 39.0
e 170 161 7.0
e 170 144 45.0
e 170 152 11.0
e 170 29 12.0
e 170 226 30.0
e 170 106 33.0
e 170 72 39.0
e 170 155 42.0
e 170 153 2.0
e 170 221 22.0
e 170 1 32.0
e 170 219 42.0
e 170 289 21.0
e 170 108 25.0
e 170 296 21.0
e 171 200 2.0
e 172 294 1.0
e 173 105 1.0
e 174 104 2.0
e 175 238 1.0
e 176 167 1.0
e 177 139 23.0
e 177 251 1.0
e 178 62 8.0
e 179 216 13.0
e 180 288 1.0
e 181 253 1.0
e 182 209 2.0
e 183 182 20.0
e 183 106 19.0
e 183 187 40.0
e 183 287 17.0
e 183 127 49.0
e 183 123 9.0
e 183 245 28.0
e 183 236 47.0
e 183 151 42.0
e 183 184 46.0
e 183 223 7.0
e 183 259 11.0
e 183 291 16.0
e 183 130 39.0
e 183 7 30.0
e 183 296 18.0
e 183 308 23.0
e 183 142 24.0
e 183 256 39.0
e 183 156 46.0
e 183 120 47.0
e 183 22 34.0
e 183 10 6.0
e 183 2 29.0
e 183 139 16.0
e 183 299 37.0
e 183 71 47.0
e 183 14 29.0
e 183 202 30.0
e 183 258 9.0
e 183 5 28.0
e 183 32 2.0
e 183 173 21.0
e 183 63 14.0
e 183 158 44.0
e 183 126 32.0
e 183 53 25.0
e 183 97 25.0
e 183 238 14.0
e 183 138 39.0
e 184 170 40.0
e 184 56 2.0
e 184 194 4.0
e 184 297 6.0
e 184 178 9.0
e 184 313 11.0
e 184 265 8.0
e 184 87 2.0
e 184 21 24.0
e 185 205 1.0
e 186 53 3.0
e 187 58 36.0
e 188 164 2.0
e 189 25 2.0
e 190 202 1.0
e 191 199 1.0
e 192 284 5.0
e 193 290 3.0
e 194 108 1.0
e 195 189 1.0
e 196 89 1.0
e 197 82 1.0
e 198 277 1.0
e 199 186 2.0
e 200 36 1.0
e 201 229 1.0
e 202 69 1.0
e 203 228 1.0
e 204 234 1.0
e 205 53 1.0
e 206 33 22.0
e 207 163 1.0
e 207 194 1.0
e 208 13 1.0
e 209 185 1.0
e 210 121 3.0
e 211 116 1.0
e 212 95 1.0
e 213 232 49.0
e 214 47 1.0
e 215 28 1.0
e 216 131 37.0
e 216 227 9.0
e 216 210 8.0
e 216 221 46.0
e 216 48 26.0
e 216 1 2.0
e 216 147 5.0
e 216 176 22.0
e 216 250 31.0
e 216 172 13.0
e 216 301 44.0
e 216 288 2.0
e 216 225 28.0
e 216 282 13.0
e 216 275 39.0
e 216 316 19.0
e 216 35 37.0
e 216 298 31.0
e 216 283 32.0
e 216 89 18.0
e 216 239 29.0
e 216 84 41.0
e 216 107 42.0
e 216 211 41.0
e 216 119 47.0
e 216 209 8.0
e 216 137 24.0
e 216 235 25.0
e 216 60 14.0
e 216 242 16.0
e 216 313 19.0
e 216 265 28.0
e 216 148 1.0
e 216 226 47.0
e 216 272 11.0
e 216 169 1.0
e 216 318 11.0
e 217 203 1.0
e 218 64 49.0
e 218 136 34.0
e 218 206 39.0
e 218 273 45.0
e 218 86 37.0
e 218 151 29.0
e 218 129 11.0
e 218 231 3.0
e 218 9 23.0
e 218 213 27.0
e 218 238 39.0
e 218 146 41.0
e 218 271 4.0
e 218 59 12.0
e 218 49 12.0
e 218 240 15.0
e 218 314 4.0
e 218 34 21.0
e 218 188 24.0
e 218 124 11.0
e 218 35 1.0
e 218 244 15.0
e 218 262 10.0
e 218 197 6.0
e 218 170 32.0
e 218 208 33.0
e 218 110 14.0
e 218 169 32.0
e 218 115 13.0
e 218 113 9.0
e 218 18 12.0
e 218 317 38.0
e 218 96 28.0
e 218 282 41.0
e 218 249 15.0
e 218 294 26.0
e 218 53 34.0
e 218 72 46.0
e 219 267 1.0
e 220 141 22.0
e 221 141 12.0
e 222 152 2.0
e 223 148 1.0
e 224 140 2.0
e 225 76 37.0
e 226 10 1.0
e 227 200 1.0
e 228 109 21.0
e 229 204 1.0
e 230 107 1.0
e 231 153 1.0
e 232 82 8.0
e 232 262 1.0
e 232 12 14.0
e 232 316 30.0
e 232 56 46.0
e 232 149 42.0
e 232 148 40.0
e 232 245 8.0
e 232 240 13.0
e 232 275 14.0
e 232 215 33.0
e 232 243 5.0
e 232 13 19.0
e 232 236 18.0
e 232 169 48.0
e 232 118 25.0
e 232 170 49.0
e 232 176 33.0
e 232 122 31.0
e 232 62 8.0
e 232 214 37.0
e 232 3 37.0
e 232 124 11.0
e 232 285 24.0
e 232 18 27.0
e 232 83 10.0
e 232 71 8.0
e 232 104 7.0
e 232 237 22.0
e 232 317 14.0
e 232 54 13.0
e 232 298 8.0
e 232 42 26.0
e 232 14 24.0
e 232 224 45.0
e 233 307 1.0
e 234 304 1.0
e 235 230 1.0
e 236 140 11.0
e 236 46 20.0
e 236 192 20.0
e 236 74 6.0
e 236 113 14.0
e 236 177 33.0
e 236 82 15.0
e 236 64 13.0
e 236 205 16.0
e 236 246 43.0
e 236 188 7.0
e 236 273 3.0
e 236 293 6.0
e 236 294 40.0
e 236 117 16.0
e 236 282 47.0
e 236 10 12.0
e 236 127 19.0
e 236 158 42.0
e 236 157 23.0
e 236 275 9.0
e 236 78 12.0
e 236 314 1.0
e 236 195 19.0
e 236 114 32.0
e 236 27 46.0
e 236 50 20.0
e 236 21 11.0
e 236 196 26.0
e 236 22 30.0
e 236 279 47.0
e 236 102 6.0
e 236 164 37.0
e 237 108 2.0
e 238 263 1.0
e 239 142 41.0
e 239 31 35.0
e 239 55 45.0
e 239 59 49.0
e 239 38 23.0
e 239 208 20.0
e 239 218 40.0
e 239 238 23.0
e 239 19 3.0
e 239 115 28.0
e 239 279 42.0
e 239 34 14.0
e 239 203 41.0
e 239 231 20.0
e 239 277 40.0
e 239 192 11.0
e 239 219 16.0
e 239 170 44.0
e 239 266 17.0
e 239 94 42.0
e 239 284 17.0
e 239 3 41.0
e 239 71 40.0
e 239 73 47.0
e 239 39 10.0
e 239 101 33.0
e 239 15 26.0
e 239 306 18.0
e 239 100 15.0
e 239 42 14.0
e 239 152 17.0
e 239 148 20.0
e 239 133 36.0
e 239 95 4.0
e 239 278 4.0
e 239 174 44.0
e 239 294 4.0
e 240 75 2.0
e 241 279 1.0
e 242 42 1.0
e 243 104 2.0
e 244 114 5.0
e 244 79 32.0
e 244 220 7.0
e 244 211 18.0
e 244 32 12.0
e 244 226 45.0
e 244 70 14.0
e 244 200 22.0
e 244 64 42.0
e 244 209 43.0
e 244 314 22.0
e 244 221 2.0
e 244 4 10.0
e 244 306 32.0
e 244 111 6.0
e 244 55 9.0
e 244 190 47.0
e 244 250 48.0
e 244 56 49.0
e 244 96 11.0
e 244 35 9.0
e 244 310 34.0
e 244 273 27.0
e 244 291 7.0
e 244 275 28.0
e 244 117 13.0
e 244 274 19.0
e 244 265 2.0
e 244 41 39.0
e 244 135 28.0
e 244 315 8.0
e 244 137 37.0
e 244 307 20.0
e 244 208 21.0
e 245 167 1.0
e 246 155 1.0
e 247 17 1.0
e 248 293 1.0
e 249 237 1.0
e 250 283 2.0
e 251 82 2.0
e 252 250 2.0
e 253 100 1.0
e 254 131 31.0
e 254 253 19.0
e 254 294 22.0
e 254 213 36.0
e 254 142 24.0
e 254 10 45.0
e 254 12 10.0
e 254 102 44.0
e 254 40 40.0
e 254 100 19.0
e 254 42 20.0
e 254 300 20.0
e 254 267 7.0
e 254 15 6.0
e 254 6 45.0
e 254 203 17.0
e 254 148 14.0
e 254 56 4.0
e 254 154 23.0
e 254 123 27.0
e 254 29 23.0
e 254 189 26.0
e 254 125 5.0
e 254 149 6.0
e 254 20 11.0
e 254 57 11.0
e 254 107 34.0
e 254 295 8.0
e 254 106 32.0
e 254 271 27.0
e 254 212 46.0
e 254 287 40.0
e 254 82 21.0
e 254 314 13.0
e 254 304 46.0
e 254 174 39.0
e 255 48 1.0
e 256 249 1.0
e 257 256 18.0
e 257 177 46.0
e 257 95 19.0
e 257 175 22.0
e 257 84 9.0
e 257 121 47.0
e 257 252 24.0
e 257 176 33.0
e 257 183 24.0
e 257 201 33.0
e 257 238 35.0
e 257 314 26.0
e 257 206 39.0
e 257 105 29.0
e 257 123 16.0
e 257 99 48.0
e 257 41 3.0
e 257 76 22.0
e 257 218 11.0
e 257 293 13.0
e 257 150 6.0
e 257 81 2.0
e 257 152 25.0
e 257 196 22.0
e 257 290 46.0
e 257 205 37.0
e 257 239 10.0
e 257 190 21.0
e 257 312 32.0
e 257 281 6.0
e 257 185 48.0
e 257 207 37.0
e 257 67 36.0
e 257 42 46.0
e 257 147 46.0
e 257 224 21.0
e 258 259 1.0
e 259 231 1.0
e 260 230 1.0
e 261 202 1.0
e 262 179 2.0
e 263 6 44.0
e 264 43 1.0
e 265 68 1.0
e 266 263 1.0
e 267 277 1.0
e 268 272 1.0
e 269 275 1.0
e 270 214 1.0
e 271 24 1.0
e 272 205 1.0
e 273 181 1.0
e 274 95 1.0
e 275 279 1.0
e 276 38 1.0
e 277 298 2.0
e 278 317 46.0
e 279 307 1.0
e 280 194 1.0
e 280 263 1.0
e 281 225 2.0
e 282 146 1.0
e 283 193 3.0
e 284 230 1.0
e 285 118 1.0
e 286 43 1.0
e 287 181 2.0
e 288 250 2.0
e 289 257 48.0
e 289 307 1.0
e 290 86 2.0
e 291 171 1.0
e 292 310 25.0
e 292 183 31.0
e 292 231 29.0
e 292 318 24.0
e 292 289 9.0
e 292 93 18.0
e 292 271 10.0
e 292 105 35.0
e 292 30 18.0
e 292 279 12.0
e 292 273 38.0
e 292 201 46.0
e 292 91 28.0
e 292 267 20.0
e 292 131 15.0
e 292 240 31.0
e 292 139 28.0
e 292 149 22.0
e 292 80 1.0
e 292 237 25.0
e 292 268 36.0
e 292 106 13.0
e 292 175 7.0
e 292 217 16.0
e 292 110 38.0
e 292 43 30.0
e 292 27 1.0
e 292 73 33.0
e 292 10 15.0
e 292 145 36.0
e 292 125 25.0
e 292 46 31.0
e 292 78 27.0
e 293 234 1.0
e 294 305 14.0
e 295 318 1.0
e 296 191 1.0
e 297 57 3.0
e 298 58 38.0
e 299 219 1.0
e 300 23 2.0
e 301 236 29.0
e 301 297 7.0
e 301 94 9.0
e 301 1 49.0
e 301 165 8.0
e 301 172 1.0
e 302 315 1.0
e 303 155 18.0
e 303 197 34.0
e 303 314 42.0
e 303 53 29.0
e 303 109 41.0
e 303 31 28.0
e 303 95 35.0
e 303 37 36.0
e 303 94 41.0
e 303 246 2.0
e 303 296 37.0
e 303 215 1.0
e 303 261 13.0
e 303 45 9.0
e 303 280 29.0
e 303 121 3.0
e 303 276 22.0
e 303 199 6.0
e 303 141 28.0
e 303 255 17.0
e 303 184 8.0
e 303 113 7.0
e 303 195 19.0
e 303 110 28.0
e 303 181 49.0
e 303 156 33.0
e 303 159 10.0
e 303 44 5.0
e 303 118 28.0
e 303 188 37.0
e 303 5 27.0
e 303 138 23.0
e 303 144 3.0
e 303 234 3.0
e 303 4 37.0
e 303 154 17.0
e 303 315 37.0
e 304 263 2.0
e 305 102 49.0
e 305 266 21.0
e 305 3 15.0
e 305 105 22.0
e 305 248 17.0
e 305 302 25.0
e 305 128 26.0
e 305 223 31.0
e 305 216 18.0
e 305 70 39.0
e 305 186 7.0
e 305 91 41.0
e 305 114 32.0
e 305 149 38.0
e 305 73 49.0
e 305 301 31.0
e 305 44 1.0
e 305 232 29.0
e 305 218 49.0
e 305 161 45.0
e 305 233 28.0
e 305 43 24.0
e 305 209 47.0
e 305 38 42.0
e 305 24 38.0
e 305 226 45.0
e 305 80 3.0
e 305 78 45.0
e 305 72 47.0
e 305 39 39.0
e 305 276 37.0
e 305 167 18.0
e 305 11 17.0
e 305 115 23.0
e 305 170 8.0
e 305 269 17.0
e 305 173 15.0
e 306 293 1.0
e 307 158 2.0
e 308 198 1.0
e 309 138 1.0
e 310 315 3.0
e 311 179 2.0
e 312 52 2.0
e 313 202 1.0
e 314 282 1.0
e 315 90 1.0
e 316 125 1.0
e 317 246 1.0
e 317 191 16.0
e 317 68 2.0
e 317 11 23.0
e 317 26 39.0
e 317 122 40.0
e 317 243 41.0
e 317 141 13.0
e 317 146 29.0
e 317 242 1.0
e 317 47 27.0
e 317 309 30.0
e 317 143 29.0
e 317 179 34.0
e 317 228 15.0
e 317 64 20.0
e 317 197 43.0
e 317 291 14.0
e 317 151 10.0
e 317 168 32.0
e 317 300 21.0
e 317 231 43.0
e 317 152 17.0
e 317 1 7.0
e 317 84 39.0
e 317 292 1.0
e 317 310 48.0
e 317 12 33.0
e 317 40 20.0
e 317 106 7.0
e 317 280 33.0
e 317 293 39.0
e 317 135 10.0
e 317 177 3.0
e 317 142 6.0
e 317 272 20.0
e 318 9 2.0
e 319 20 1.0
e 319 52 1.0
